24
 1 24 1
 2 72 3
 3 360 15
 4 312 13
 5 240 10
 6 72 3
 7 168 7
 8 336 14
 9 312 13
 10 96 4
 11 264 11
 12 192 8
 13 360 15
 14 456 19
 15 96 4
 16 312 13
 17 48 2
 18 72 3
 19 24 1
 20 48 2
 21 240 10
 22 24 1
 23 432 18
 24 48 2
72